(set-logic QF_NRA_ODE)
(declare-fun v () Real [-15000.000000, 15000.000000])
(declare-fun t2 () Real [-15000.000000, 15000.000000])
(declare-fun t1 () Real [-15000.000000, 15000.000000])
(declare-fun riseTime () Real [-15000.000000, 15000.000000])
(declare-fun localTime () Real [-15000.000000, 15000.000000])
(declare-fun level () Real [-15000.000000, 15000.000000])
(declare-fun i () Real [-15000.000000, 15000.000000])
(declare-fun clock_time () Real [-15000.000000, 15000.000000])
(declare-fun v_0_0 () Real [-15000.000000, 15000.000000])
(declare-fun v_0_t () Real [-15000.000000, 15000.000000])
(declare-fun v_1_0 () Real [-15000.000000, 15000.000000])
(declare-fun v_1_t () Real [-15000.000000, 15000.000000])
(declare-fun v_2_0 () Real [-15000.000000, 15000.000000])
(declare-fun v_2_t () Real [-15000.000000, 15000.000000])
(declare-fun v_3_0 () Real [-15000.000000, 15000.000000])
(declare-fun v_3_t () Real [-15000.000000, 15000.000000])
(declare-fun v_4_0 () Real [-15000.000000, 15000.000000])
(declare-fun v_4_t () Real [-15000.000000, 15000.000000])
(declare-fun v_5_0 () Real [-15000.000000, 15000.000000])
(declare-fun v_5_t () Real [-15000.000000, 15000.000000])
(declare-fun v_6_0 () Real [-15000.000000, 15000.000000])
(declare-fun v_6_t () Real [-15000.000000, 15000.000000])
(declare-fun v_7_0 () Real [-15000.000000, 15000.000000])
(declare-fun v_7_t () Real [-15000.000000, 15000.000000])
(declare-fun v_8_0 () Real [-15000.000000, 15000.000000])
(declare-fun v_8_t () Real [-15000.000000, 15000.000000])
(declare-fun v_9_0 () Real [-15000.000000, 15000.000000])
(declare-fun v_9_t () Real [-15000.000000, 15000.000000])
(declare-fun v_10_0 () Real [-15000.000000, 15000.000000])
(declare-fun v_10_t () Real [-15000.000000, 15000.000000])
(declare-fun v_11_0 () Real [-15000.000000, 15000.000000])
(declare-fun v_11_t () Real [-15000.000000, 15000.000000])
(declare-fun v_12_0 () Real [-15000.000000, 15000.000000])
(declare-fun v_12_t () Real [-15000.000000, 15000.000000])
(declare-fun v_13_0 () Real [-15000.000000, 15000.000000])
(declare-fun v_13_t () Real [-15000.000000, 15000.000000])
(declare-fun v_14_0 () Real [-15000.000000, 15000.000000])
(declare-fun v_14_t () Real [-15000.000000, 15000.000000])
(declare-fun t2_0_0 () Real [-15000.000000, 15000.000000])
(declare-fun t2_0_t () Real [-15000.000000, 15000.000000])
(declare-fun t2_1_0 () Real [-15000.000000, 15000.000000])
(declare-fun t2_1_t () Real [-15000.000000, 15000.000000])
(declare-fun t2_2_0 () Real [-15000.000000, 15000.000000])
(declare-fun t2_2_t () Real [-15000.000000, 15000.000000])
(declare-fun t2_3_0 () Real [-15000.000000, 15000.000000])
(declare-fun t2_3_t () Real [-15000.000000, 15000.000000])
(declare-fun t2_4_0 () Real [-15000.000000, 15000.000000])
(declare-fun t2_4_t () Real [-15000.000000, 15000.000000])
(declare-fun t2_5_0 () Real [-15000.000000, 15000.000000])
(declare-fun t2_5_t () Real [-15000.000000, 15000.000000])
(declare-fun t2_6_0 () Real [-15000.000000, 15000.000000])
(declare-fun t2_6_t () Real [-15000.000000, 15000.000000])
(declare-fun t2_7_0 () Real [-15000.000000, 15000.000000])
(declare-fun t2_7_t () Real [-15000.000000, 15000.000000])
(declare-fun t2_8_0 () Real [-15000.000000, 15000.000000])
(declare-fun t2_8_t () Real [-15000.000000, 15000.000000])
(declare-fun t2_9_0 () Real [-15000.000000, 15000.000000])
(declare-fun t2_9_t () Real [-15000.000000, 15000.000000])
(declare-fun t2_10_0 () Real [-15000.000000, 15000.000000])
(declare-fun t2_10_t () Real [-15000.000000, 15000.000000])
(declare-fun t2_11_0 () Real [-15000.000000, 15000.000000])
(declare-fun t2_11_t () Real [-15000.000000, 15000.000000])
(declare-fun t2_12_0 () Real [-15000.000000, 15000.000000])
(declare-fun t2_12_t () Real [-15000.000000, 15000.000000])
(declare-fun t2_13_0 () Real [-15000.000000, 15000.000000])
(declare-fun t2_13_t () Real [-15000.000000, 15000.000000])
(declare-fun t2_14_0 () Real [-15000.000000, 15000.000000])
(declare-fun t2_14_t () Real [-15000.000000, 15000.000000])
(declare-fun t1_0_0 () Real [-15000.000000, 15000.000000])
(declare-fun t1_0_t () Real [-15000.000000, 15000.000000])
(declare-fun t1_1_0 () Real [-15000.000000, 15000.000000])
(declare-fun t1_1_t () Real [-15000.000000, 15000.000000])
(declare-fun t1_2_0 () Real [-15000.000000, 15000.000000])
(declare-fun t1_2_t () Real [-15000.000000, 15000.000000])
(declare-fun t1_3_0 () Real [-15000.000000, 15000.000000])
(declare-fun t1_3_t () Real [-15000.000000, 15000.000000])
(declare-fun t1_4_0 () Real [-15000.000000, 15000.000000])
(declare-fun t1_4_t () Real [-15000.000000, 15000.000000])
(declare-fun t1_5_0 () Real [-15000.000000, 15000.000000])
(declare-fun t1_5_t () Real [-15000.000000, 15000.000000])
(declare-fun t1_6_0 () Real [-15000.000000, 15000.000000])
(declare-fun t1_6_t () Real [-15000.000000, 15000.000000])
(declare-fun t1_7_0 () Real [-15000.000000, 15000.000000])
(declare-fun t1_7_t () Real [-15000.000000, 15000.000000])
(declare-fun t1_8_0 () Real [-15000.000000, 15000.000000])
(declare-fun t1_8_t () Real [-15000.000000, 15000.000000])
(declare-fun t1_9_0 () Real [-15000.000000, 15000.000000])
(declare-fun t1_9_t () Real [-15000.000000, 15000.000000])
(declare-fun t1_10_0 () Real [-15000.000000, 15000.000000])
(declare-fun t1_10_t () Real [-15000.000000, 15000.000000])
(declare-fun t1_11_0 () Real [-15000.000000, 15000.000000])
(declare-fun t1_11_t () Real [-15000.000000, 15000.000000])
(declare-fun t1_12_0 () Real [-15000.000000, 15000.000000])
(declare-fun t1_12_t () Real [-15000.000000, 15000.000000])
(declare-fun t1_13_0 () Real [-15000.000000, 15000.000000])
(declare-fun t1_13_t () Real [-15000.000000, 15000.000000])
(declare-fun t1_14_0 () Real [-15000.000000, 15000.000000])
(declare-fun t1_14_t () Real [-15000.000000, 15000.000000])
(declare-fun riseTime_0_0 () Real [-15000.000000, 15000.000000])
(declare-fun riseTime_0_t () Real [-15000.000000, 15000.000000])
(declare-fun riseTime_1_0 () Real [-15000.000000, 15000.000000])
(declare-fun riseTime_1_t () Real [-15000.000000, 15000.000000])
(declare-fun riseTime_2_0 () Real [-15000.000000, 15000.000000])
(declare-fun riseTime_2_t () Real [-15000.000000, 15000.000000])
(declare-fun riseTime_3_0 () Real [-15000.000000, 15000.000000])
(declare-fun riseTime_3_t () Real [-15000.000000, 15000.000000])
(declare-fun riseTime_4_0 () Real [-15000.000000, 15000.000000])
(declare-fun riseTime_4_t () Real [-15000.000000, 15000.000000])
(declare-fun riseTime_5_0 () Real [-15000.000000, 15000.000000])
(declare-fun riseTime_5_t () Real [-15000.000000, 15000.000000])
(declare-fun riseTime_6_0 () Real [-15000.000000, 15000.000000])
(declare-fun riseTime_6_t () Real [-15000.000000, 15000.000000])
(declare-fun riseTime_7_0 () Real [-15000.000000, 15000.000000])
(declare-fun riseTime_7_t () Real [-15000.000000, 15000.000000])
(declare-fun riseTime_8_0 () Real [-15000.000000, 15000.000000])
(declare-fun riseTime_8_t () Real [-15000.000000, 15000.000000])
(declare-fun riseTime_9_0 () Real [-15000.000000, 15000.000000])
(declare-fun riseTime_9_t () Real [-15000.000000, 15000.000000])
(declare-fun riseTime_10_0 () Real [-15000.000000, 15000.000000])
(declare-fun riseTime_10_t () Real [-15000.000000, 15000.000000])
(declare-fun riseTime_11_0 () Real [-15000.000000, 15000.000000])
(declare-fun riseTime_11_t () Real [-15000.000000, 15000.000000])
(declare-fun riseTime_12_0 () Real [-15000.000000, 15000.000000])
(declare-fun riseTime_12_t () Real [-15000.000000, 15000.000000])
(declare-fun riseTime_13_0 () Real [-15000.000000, 15000.000000])
(declare-fun riseTime_13_t () Real [-15000.000000, 15000.000000])
(declare-fun riseTime_14_0 () Real [-15000.000000, 15000.000000])
(declare-fun riseTime_14_t () Real [-15000.000000, 15000.000000])
(declare-fun localTime_0_0 () Real [-15000.000000, 15000.000000])
(declare-fun localTime_0_t () Real [-15000.000000, 15000.000000])
(declare-fun localTime_1_0 () Real [-15000.000000, 15000.000000])
(declare-fun localTime_1_t () Real [-15000.000000, 15000.000000])
(declare-fun localTime_2_0 () Real [-15000.000000, 15000.000000])
(declare-fun localTime_2_t () Real [-15000.000000, 15000.000000])
(declare-fun localTime_3_0 () Real [-15000.000000, 15000.000000])
(declare-fun localTime_3_t () Real [-15000.000000, 15000.000000])
(declare-fun localTime_4_0 () Real [-15000.000000, 15000.000000])
(declare-fun localTime_4_t () Real [-15000.000000, 15000.000000])
(declare-fun localTime_5_0 () Real [-15000.000000, 15000.000000])
(declare-fun localTime_5_t () Real [-15000.000000, 15000.000000])
(declare-fun localTime_6_0 () Real [-15000.000000, 15000.000000])
(declare-fun localTime_6_t () Real [-15000.000000, 15000.000000])
(declare-fun localTime_7_0 () Real [-15000.000000, 15000.000000])
(declare-fun localTime_7_t () Real [-15000.000000, 15000.000000])
(declare-fun localTime_8_0 () Real [-15000.000000, 15000.000000])
(declare-fun localTime_8_t () Real [-15000.000000, 15000.000000])
(declare-fun localTime_9_0 () Real [-15000.000000, 15000.000000])
(declare-fun localTime_9_t () Real [-15000.000000, 15000.000000])
(declare-fun localTime_10_0 () Real [-15000.000000, 15000.000000])
(declare-fun localTime_10_t () Real [-15000.000000, 15000.000000])
(declare-fun localTime_11_0 () Real [-15000.000000, 15000.000000])
(declare-fun localTime_11_t () Real [-15000.000000, 15000.000000])
(declare-fun localTime_12_0 () Real [-15000.000000, 15000.000000])
(declare-fun localTime_12_t () Real [-15000.000000, 15000.000000])
(declare-fun localTime_13_0 () Real [-15000.000000, 15000.000000])
(declare-fun localTime_13_t () Real [-15000.000000, 15000.000000])
(declare-fun localTime_14_0 () Real [-15000.000000, 15000.000000])
(declare-fun localTime_14_t () Real [-15000.000000, 15000.000000])
(declare-fun level_0_0 () Real [-15000.000000, 15000.000000])
(declare-fun level_0_t () Real [-15000.000000, 15000.000000])
(declare-fun level_1_0 () Real [-15000.000000, 15000.000000])
(declare-fun level_1_t () Real [-15000.000000, 15000.000000])
(declare-fun level_2_0 () Real [-15000.000000, 15000.000000])
(declare-fun level_2_t () Real [-15000.000000, 15000.000000])
(declare-fun level_3_0 () Real [-15000.000000, 15000.000000])
(declare-fun level_3_t () Real [-15000.000000, 15000.000000])
(declare-fun level_4_0 () Real [-15000.000000, 15000.000000])
(declare-fun level_4_t () Real [-15000.000000, 15000.000000])
(declare-fun level_5_0 () Real [-15000.000000, 15000.000000])
(declare-fun level_5_t () Real [-15000.000000, 15000.000000])
(declare-fun level_6_0 () Real [-15000.000000, 15000.000000])
(declare-fun level_6_t () Real [-15000.000000, 15000.000000])
(declare-fun level_7_0 () Real [-15000.000000, 15000.000000])
(declare-fun level_7_t () Real [-15000.000000, 15000.000000])
(declare-fun level_8_0 () Real [-15000.000000, 15000.000000])
(declare-fun level_8_t () Real [-15000.000000, 15000.000000])
(declare-fun level_9_0 () Real [-15000.000000, 15000.000000])
(declare-fun level_9_t () Real [-15000.000000, 15000.000000])
(declare-fun level_10_0 () Real [-15000.000000, 15000.000000])
(declare-fun level_10_t () Real [-15000.000000, 15000.000000])
(declare-fun level_11_0 () Real [-15000.000000, 15000.000000])
(declare-fun level_11_t () Real [-15000.000000, 15000.000000])
(declare-fun level_12_0 () Real [-15000.000000, 15000.000000])
(declare-fun level_12_t () Real [-15000.000000, 15000.000000])
(declare-fun level_13_0 () Real [-15000.000000, 15000.000000])
(declare-fun level_13_t () Real [-15000.000000, 15000.000000])
(declare-fun level_14_0 () Real [-15000.000000, 15000.000000])
(declare-fun level_14_t () Real [-15000.000000, 15000.000000])
(declare-fun i_0_0 () Real [-15000.000000, 15000.000000])
(declare-fun i_0_t () Real [-15000.000000, 15000.000000])
(declare-fun i_1_0 () Real [-15000.000000, 15000.000000])
(declare-fun i_1_t () Real [-15000.000000, 15000.000000])
(declare-fun i_2_0 () Real [-15000.000000, 15000.000000])
(declare-fun i_2_t () Real [-15000.000000, 15000.000000])
(declare-fun i_3_0 () Real [-15000.000000, 15000.000000])
(declare-fun i_3_t () Real [-15000.000000, 15000.000000])
(declare-fun i_4_0 () Real [-15000.000000, 15000.000000])
(declare-fun i_4_t () Real [-15000.000000, 15000.000000])
(declare-fun i_5_0 () Real [-15000.000000, 15000.000000])
(declare-fun i_5_t () Real [-15000.000000, 15000.000000])
(declare-fun i_6_0 () Real [-15000.000000, 15000.000000])
(declare-fun i_6_t () Real [-15000.000000, 15000.000000])
(declare-fun i_7_0 () Real [-15000.000000, 15000.000000])
(declare-fun i_7_t () Real [-15000.000000, 15000.000000])
(declare-fun i_8_0 () Real [-15000.000000, 15000.000000])
(declare-fun i_8_t () Real [-15000.000000, 15000.000000])
(declare-fun i_9_0 () Real [-15000.000000, 15000.000000])
(declare-fun i_9_t () Real [-15000.000000, 15000.000000])
(declare-fun i_10_0 () Real [-15000.000000, 15000.000000])
(declare-fun i_10_t () Real [-15000.000000, 15000.000000])
(declare-fun i_11_0 () Real [-15000.000000, 15000.000000])
(declare-fun i_11_t () Real [-15000.000000, 15000.000000])
(declare-fun i_12_0 () Real [-15000.000000, 15000.000000])
(declare-fun i_12_t () Real [-15000.000000, 15000.000000])
(declare-fun i_13_0 () Real [-15000.000000, 15000.000000])
(declare-fun i_13_t () Real [-15000.000000, 15000.000000])
(declare-fun i_14_0 () Real [-15000.000000, 15000.000000])
(declare-fun i_14_t () Real [-15000.000000, 15000.000000])
(declare-fun clock_time_0_0 () Real [-15000.000000, 15000.000000])
(declare-fun clock_time_0_t () Real [-15000.000000, 15000.000000])
(declare-fun clock_time_1_0 () Real [-15000.000000, 15000.000000])
(declare-fun clock_time_1_t () Real [-15000.000000, 15000.000000])
(declare-fun clock_time_2_0 () Real [-15000.000000, 15000.000000])
(declare-fun clock_time_2_t () Real [-15000.000000, 15000.000000])
(declare-fun clock_time_3_0 () Real [-15000.000000, 15000.000000])
(declare-fun clock_time_3_t () Real [-15000.000000, 15000.000000])
(declare-fun clock_time_4_0 () Real [-15000.000000, 15000.000000])
(declare-fun clock_time_4_t () Real [-15000.000000, 15000.000000])
(declare-fun clock_time_5_0 () Real [-15000.000000, 15000.000000])
(declare-fun clock_time_5_t () Real [-15000.000000, 15000.000000])
(declare-fun clock_time_6_0 () Real [-15000.000000, 15000.000000])
(declare-fun clock_time_6_t () Real [-15000.000000, 15000.000000])
(declare-fun clock_time_7_0 () Real [-15000.000000, 15000.000000])
(declare-fun clock_time_7_t () Real [-15000.000000, 15000.000000])
(declare-fun clock_time_8_0 () Real [-15000.000000, 15000.000000])
(declare-fun clock_time_8_t () Real [-15000.000000, 15000.000000])
(declare-fun clock_time_9_0 () Real [-15000.000000, 15000.000000])
(declare-fun clock_time_9_t () Real [-15000.000000, 15000.000000])
(declare-fun clock_time_10_0 () Real [-15000.000000, 15000.000000])
(declare-fun clock_time_10_t () Real [-15000.000000, 15000.000000])
(declare-fun clock_time_11_0 () Real [-15000.000000, 15000.000000])
(declare-fun clock_time_11_t () Real [-15000.000000, 15000.000000])
(declare-fun clock_time_12_0 () Real [-15000.000000, 15000.000000])
(declare-fun clock_time_12_t () Real [-15000.000000, 15000.000000])
(declare-fun clock_time_13_0 () Real [-15000.000000, 15000.000000])
(declare-fun clock_time_13_t () Real [-15000.000000, 15000.000000])
(declare-fun clock_time_14_0 () Real [-15000.000000, 15000.000000])
(declare-fun clock_time_14_t () Real [-15000.000000, 15000.000000])
(declare-fun time_0 () Real [-15000.000000, 15000.000000])
(declare-fun time_1 () Real [-15000.000000, 15000.000000])
(declare-fun time_2 () Real [-15000.000000, 15000.000000])
(declare-fun time_3 () Real [-15000.000000, 15000.000000])
(declare-fun time_4 () Real [-15000.000000, 15000.000000])
(declare-fun time_5 () Real [-15000.000000, 15000.000000])
(declare-fun time_6 () Real [-15000.000000, 15000.000000])
(declare-fun time_7 () Real [-15000.000000, 15000.000000])
(declare-fun time_8 () Real [-15000.000000, 15000.000000])
(declare-fun time_9 () Real [-15000.000000, 15000.000000])
(declare-fun time_10 () Real [-15000.000000, 15000.000000])
(declare-fun time_11 () Real [-15000.000000, 15000.000000])
(declare-fun time_12 () Real [-15000.000000, 15000.000000])
(declare-fun time_13 () Real [-15000.000000, 15000.000000])
(declare-fun time_14 () Real [-15000.000000, 15000.000000])
(declare-fun mode_0 () Real [1.000000, 8.000000])
(declare-fun mode_1 () Real [1.000000, 8.000000])
(declare-fun mode_2 () Real [1.000000, 8.000000])
(declare-fun mode_3 () Real [1.000000, 8.000000])
(declare-fun mode_4 () Real [1.000000, 8.000000])
(declare-fun mode_5 () Real [1.000000, 8.000000])
(declare-fun mode_6 () Real [1.000000, 8.000000])
(declare-fun mode_7 () Real [1.000000, 8.000000])
(declare-fun mode_8 () Real [1.000000, 8.000000])
(declare-fun mode_9 () Real [1.000000, 8.000000])
(declare-fun mode_10 () Real [1.000000, 8.000000])
(declare-fun mode_11 () Real [1.000000, 8.000000])
(declare-fun mode_12 () Real [1.000000, 8.000000])
(declare-fun mode_13 () Real [1.000000, 8.000000])
(declare-fun mode_14 () Real [1.000000, 8.000000])
(define-ode flow_1 ((= d/dt[clock_time] 1) (= d/dt[i] 0) (= d/dt[level] 0) (= d/dt[localTime] 1) (= d/dt[riseTime] 0) (= d/dt[t1] 0) (= d/dt[t2] 0) (= d/dt[v] 0.0001)))
(define-ode flow_2 ((= d/dt[clock_time] 1) (= d/dt[i] 0) (= d/dt[level] 0) (= d/dt[localTime] 1) (= d/dt[riseTime] 0) (= d/dt[t1] 0) (= d/dt[t2] 0) (= d/dt[v] (/ (- (+ 3 0.005) v) 1200))))
(define-ode flow_3 ((= d/dt[clock_time] 1) (= d/dt[i] 0) (= d/dt[level] 0) (= d/dt[localTime] 1) (= d/dt[riseTime] 0) (= d/dt[t1] 0) (= d/dt[t2] 0) (= d/dt[v] (/ (- (+ 4.2 0.005) v) 150))))
(define-ode flow_4 ((= d/dt[clock_time] 1) (= d/dt[i] (/ (- 0 i) 150)) (= d/dt[level] 0) (= d/dt[localTime] 1) (= d/dt[riseTime] 0) (= d/dt[t1] 0) (= d/dt[t2] 0) (= d/dt[v] 0)))
(define-ode flow_5 ((= d/dt[clock_time] 1) (= d/dt[i] 0) (= d/dt[level] 0) (= d/dt[localTime] 1) (= d/dt[riseTime] 0) (= d/dt[t1] 0) (= d/dt[t2] 0) (= d/dt[v] (/ (- 0 v) 1200))))
(define-ode flow_6 ((= d/dt[clock_time] 1) (= d/dt[i] 0) (= d/dt[level] 0) (= d/dt[localTime] 0) (= d/dt[riseTime] 0) (= d/dt[t1] 0) (= d/dt[t2] 0) (= d/dt[v] 0)))
(define-ode flow_7 ((= d/dt[clock_time] 0) (= d/dt[i] 0) (= d/dt[level] 0) (= d/dt[localTime] 0) (= d/dt[riseTime] 0) (= d/dt[t1] 0) (= d/dt[t2] 0) (= d/dt[v] 0)))
(define-ode flow_8 ((= d/dt[clock_time] 0) (= d/dt[i] 0) (= d/dt[level] 0) (= d/dt[localTime] 0) (= d/dt[riseTime] 0) (= d/dt[t1] 0) (= d/dt[t2] 0) (= d/dt[v] 0)))
(assert (and (and (= riseTime_0_0 0) (= localTime_0_0 0) (= clock_time_0_0 0) (= t2_0_0 0) (= t1_0_0 0) (= level_0_0 0) (= i_0_0 0) (= v_0_0 0)) (= mode_0 1) (or (and (= mode_1 2) (= level_0_t 1) (= riseTime_1_0 riseTime_0_t) (= localTime_1_0 localTime_0_t) (= clock_time_1_0 clock_time_0_t) (= t2_1_0 t2_0_t) (= t1_1_0 t1_0_t) (= level_1_0 level_0_t) (= v_1_0 v_0_t) (= i_1_0 0.05)) (and (= mode_1 2) (= level_0_t 0) (= riseTime_1_0 riseTime_0_t) (= localTime_1_0 localTime_0_t) (= clock_time_1_0 clock_time_0_t) (= t2_1_0 t2_0_t) (= t1_1_0 t1_0_t) (= level_1_0 level_0_t) (= v_1_0 v_0_t) (= i_1_0 0.05))) (= v_0_t (+ v_0_0 (* 0.0001 time_0))) (= t2_0_t (+ t2_0_0 (* 0 time_0))) (= t1_0_t (+ t1_0_0 (* 0 time_0))) (= riseTime_0_t (+ riseTime_0_0 (* 0 time_0))) (= localTime_0_t (+ localTime_0_0 (* 1 time_0))) (= level_0_t (+ level_0_0 (* 0 time_0))) (= i_0_t (+ i_0_0 (* 0 time_0))) (= clock_time_0_t (+ clock_time_0_0 (* 1 time_0))) (= [clock_time_0_t i_0_t level_0_t localTime_0_t riseTime_0_t t1_0_t t2_0_t v_0_t] (integral 0. time_0 [clock_time_0_0 i_0_0 level_0_0 localTime_0_0 riseTime_0_0 t1_0_0 t2_0_0 v_0_0] flow_1)) (= mode_0 1) (forall_t 1 [0 time_0] (and (= i_0_t 0) (<= v_0_t 4.2) (<= clock_time_0_t 15000) (<= 0 v_0_t))) (= i_0_0 0) (<= v_0_0 4.2) (<= clock_time_0_0 15000) (<= 0 v_0_0) (= i_0_t 0) (<= v_0_t 4.2) (<= clock_time_0_t 15000) (<= 0 v_0_t) (or (and (= mode_2 3) (<= v_1_t 3) (= level_1_t 1) (>= v_1_t (- 3 0.005)) (= riseTime_2_0 riseTime_1_t) (= localTime_2_0 localTime_1_t) (= clock_time_2_0 clock_time_1_t) (= t2_2_0 t2_1_t) (= t1_2_0 t1_1_t) (= level_2_0 level_1_t) (= v_2_0 v_1_t) (= i_2_0 1)) (and (= mode_2 7) (= v_1_t (* 0.1 4.2)) (= level_1_t 0) (> (/ (- (+ 3 0.005) v_1_t) 1200) 0) (= riseTime_2_0 riseTime_1_t) (= localTime_2_0 localTime_1_t) (= t2_2_0 t2_1_t) (= t1_2_0 t1_1_t) (= level_2_0 level_1_t) (= i_2_0 i_1_t) (= v_2_0 v_1_t) (= clock_time_2_0 0)) (and (= mode_2 3) (<= v_1_t 3) (= level_1_t 0) (>= v_1_t (- 3 0.005)) (= riseTime_2_0 riseTime_1_t) (= localTime_2_0 localTime_1_t) (= clock_time_2_0 clock_time_1_t) (= t2_2_0 t2_1_t) (= t1_2_0 t1_1_t) (= level_2_0 level_1_t) (= v_2_0 v_1_t) (= i_2_0 1))) (= t2_1_t (+ t2_1_0 (* 0 time_1))) (= t1_1_t (+ t1_1_0 (* 0 time_1))) (= riseTime_1_t (+ riseTime_1_0 (* 0 time_1))) (= localTime_1_t (+ localTime_1_0 (* 1 time_1))) (= level_1_t (+ level_1_0 (* 0 time_1))) (= i_1_t (+ i_1_0 (* 0 time_1))) (= clock_time_1_t (+ clock_time_1_0 (* 1 time_1))) (= [clock_time_1_t i_1_t level_1_t localTime_1_t riseTime_1_t t1_1_t t2_1_t v_1_t] (integral 0. time_1 [clock_time_1_0 i_1_0 level_1_0 localTime_1_0 riseTime_1_0 t1_1_0 t2_1_0 v_1_0] flow_2)) (= mode_1 2) (forall_t 2 [0 time_1] (and (= i_1_t 0.05) (<= v_1_t 3) (<= clock_time_1_t 15000) (<= 0 v_1_t))) (= i_1_0 0.05) (<= v_1_0 3) (<= clock_time_1_0 15000) (<= 0 v_1_0) (= i_1_t 0.05) (<= v_1_t 3) (<= clock_time_1_t 15000) (<= 0 v_1_t) (= v_2_t (+ v_2_0 (* 0 time_2))) (= t2_2_t (+ t2_2_0 (* 0 time_2))) (= t1_2_t (+ t1_2_0 (* 0 time_2))) (= riseTime_2_t (+ riseTime_2_0 (* 0 time_2))) (= localTime_2_t (+ localTime_2_0 (* 0 time_2))) (= level_2_t (+ level_2_0 (* 0 time_2))) (= i_2_t (+ i_2_0 (* 0 time_2))) (= clock_time_2_t (+ clock_time_2_0 (* 0 time_2))) (= [clock_time_2_t i_2_t level_2_t localTime_2_t riseTime_2_t t1_2_t t2_2_t v_2_t] (integral 0. time_2 [clock_time_2_0 i_2_0 level_2_0 localTime_2_0 riseTime_2_0 t1_2_0 t2_2_0 v_2_0] flow_7)) (= mode_2 7) (forall_t 7 [0 time_2] (and (= i_2_t 0.05) (<= v_2_t 3) (<= clock_time_2_t 15000) (<= 0 v_2_t))) (= i_2_0 0.05) (<= v_2_0 3) (<= clock_time_2_0 15000) (<= 0 v_2_0) (= i_2_t 0.05) (<= v_2_t 3) (<= clock_time_2_t 15000) (<= 0 v_2_t) (= mode_3 2) (= v_2_t (* 0.1 4.2)) (= level_2_t 0) (> (/ (- (+ 3 0.005) v_2_t) 1200) 0) (= riseTime_3_0 riseTime_2_t) (= clock_time_3_0 clock_time_2_t) (= t2_3_0 t2_2_t) (= i_3_0 i_2_t) (= v_3_0 v_2_t) (= t1_3_0 clock_time_2_t) (= level_3_0 1) (= localTime_3_0 0) (or (and (= mode_4 3) (<= v_3_t 3) (= level_3_t 1) (>= v_3_t (- 3 0.005)) (= riseTime_4_0 riseTime_3_t) (= localTime_4_0 localTime_3_t) (= clock_time_4_0 clock_time_3_t) (= t2_4_0 t2_3_t) (= t1_4_0 t1_3_t) (= level_4_0 level_3_t) (= v_4_0 v_3_t) (= i_4_0 1)) (and (= mode_4 7) (= v_3_t (* 0.1 4.2)) (= level_3_t 0) (> (/ (- (+ 3 0.005) v_3_t) 1200) 0) (= riseTime_4_0 riseTime_3_t) (= localTime_4_0 localTime_3_t) (= t2_4_0 t2_3_t) (= t1_4_0 t1_3_t) (= level_4_0 level_3_t) (= i_4_0 i_3_t) (= v_4_0 v_3_t) (= clock_time_4_0 0)) (and (= mode_4 3) (<= v_3_t 3) (= level_3_t 0) (>= v_3_t (- 3 0.005)) (= riseTime_4_0 riseTime_3_t) (= localTime_4_0 localTime_3_t) (= clock_time_4_0 clock_time_3_t) (= t2_4_0 t2_3_t) (= t1_4_0 t1_3_t) (= level_4_0 level_3_t) (= v_4_0 v_3_t) (= i_4_0 1))) (= t2_3_t (+ t2_3_0 (* 0 time_3))) (= t1_3_t (+ t1_3_0 (* 0 time_3))) (= riseTime_3_t (+ riseTime_3_0 (* 0 time_3))) (= localTime_3_t (+ localTime_3_0 (* 1 time_3))) (= level_3_t (+ level_3_0 (* 0 time_3))) (= i_3_t (+ i_3_0 (* 0 time_3))) (= clock_time_3_t (+ clock_time_3_0 (* 1 time_3))) (= [clock_time_3_t i_3_t level_3_t localTime_3_t riseTime_3_t t1_3_t t2_3_t v_3_t] (integral 0. time_3 [clock_time_3_0 i_3_0 level_3_0 localTime_3_0 riseTime_3_0 t1_3_0 t2_3_0 v_3_0] flow_2)) (= mode_3 2) (forall_t 2 [0 time_3] (and (= i_3_t 0.05) (<= v_3_t 3) (<= clock_time_3_t 15000) (<= 0 v_3_t))) (= i_3_0 0.05) (<= v_3_0 3) (<= clock_time_3_0 15000) (<= 0 v_3_0) (= i_3_t 0.05) (<= v_3_t 3) (<= clock_time_3_t 15000) (<= 0 v_3_t) (= v_4_t (+ v_4_0 (* 0 time_4))) (= t2_4_t (+ t2_4_0 (* 0 time_4))) (= t1_4_t (+ t1_4_0 (* 0 time_4))) (= riseTime_4_t (+ riseTime_4_0 (* 0 time_4))) (= localTime_4_t (+ localTime_4_0 (* 0 time_4))) (= level_4_t (+ level_4_0 (* 0 time_4))) (= i_4_t (+ i_4_0 (* 0 time_4))) (= clock_time_4_t (+ clock_time_4_0 (* 0 time_4))) (= [clock_time_4_t i_4_t level_4_t localTime_4_t riseTime_4_t t1_4_t t2_4_t v_4_t] (integral 0. time_4 [clock_time_4_0 i_4_0 level_4_0 localTime_4_0 riseTime_4_0 t1_4_0 t2_4_0 v_4_0] flow_7)) (= mode_4 7) (forall_t 7 [0 time_4] (and (= i_4_t 0.05) (<= v_4_t 3) (<= clock_time_4_t 15000) (<= 0 v_4_t))) (= i_4_0 0.05) (<= v_4_0 3) (<= clock_time_4_0 15000) (<= 0 v_4_0) (= i_4_t 0.05) (<= v_4_t 3) (<= clock_time_4_t 15000) (<= 0 v_4_t) (= mode_5 2) (= v_4_t (* 0.1 4.2)) (= level_4_t 0) (> (/ (- (+ 3 0.005) v_4_t) 1200) 0) (= riseTime_5_0 riseTime_4_t) (= clock_time_5_0 clock_time_4_t) (= t2_5_0 t2_4_t) (= i_5_0 i_4_t) (= v_5_0 v_4_t) (= t1_5_0 clock_time_4_t) (= level_5_0 1) (= localTime_5_0 0) (or (and (= mode_6 3) (<= v_5_t 3) (= level_5_t 1) (>= v_5_t (- 3 0.005)) (= riseTime_6_0 riseTime_5_t) (= localTime_6_0 localTime_5_t) (= clock_time_6_0 clock_time_5_t) (= t2_6_0 t2_5_t) (= t1_6_0 t1_5_t) (= level_6_0 level_5_t) (= v_6_0 v_5_t) (= i_6_0 1)) (and (= mode_6 7) (= v_5_t (* 0.1 4.2)) (= level_5_t 0) (> (/ (- (+ 3 0.005) v_5_t) 1200) 0) (= riseTime_6_0 riseTime_5_t) (= localTime_6_0 localTime_5_t) (= t2_6_0 t2_5_t) (= t1_6_0 t1_5_t) (= level_6_0 level_5_t) (= i_6_0 i_5_t) (= v_6_0 v_5_t) (= clock_time_6_0 0)) (and (= mode_6 3) (<= v_5_t 3) (= level_5_t 0) (>= v_5_t (- 3 0.005)) (= riseTime_6_0 riseTime_5_t) (= localTime_6_0 localTime_5_t) (= clock_time_6_0 clock_time_5_t) (= t2_6_0 t2_5_t) (= t1_6_0 t1_5_t) (= level_6_0 level_5_t) (= v_6_0 v_5_t) (= i_6_0 1))) (= t2_5_t (+ t2_5_0 (* 0 time_5))) (= t1_5_t (+ t1_5_0 (* 0 time_5))) (= riseTime_5_t (+ riseTime_5_0 (* 0 time_5))) (= localTime_5_t (+ localTime_5_0 (* 1 time_5))) (= level_5_t (+ level_5_0 (* 0 time_5))) (= i_5_t (+ i_5_0 (* 0 time_5))) (= clock_time_5_t (+ clock_time_5_0 (* 1 time_5))) (= [clock_time_5_t i_5_t level_5_t localTime_5_t riseTime_5_t t1_5_t t2_5_t v_5_t] (integral 0. time_5 [clock_time_5_0 i_5_0 level_5_0 localTime_5_0 riseTime_5_0 t1_5_0 t2_5_0 v_5_0] flow_2)) (= mode_5 2) (forall_t 2 [0 time_5] (and (= i_5_t 0.05) (<= v_5_t 3) (<= clock_time_5_t 15000) (<= 0 v_5_t))) (= i_5_0 0.05) (<= v_5_0 3) (<= clock_time_5_0 15000) (<= 0 v_5_0) (= i_5_t 0.05) (<= v_5_t 3) (<= clock_time_5_t 15000) (<= 0 v_5_t) (= v_6_t (+ v_6_0 (* 0 time_6))) (= t2_6_t (+ t2_6_0 (* 0 time_6))) (= t1_6_t (+ t1_6_0 (* 0 time_6))) (= riseTime_6_t (+ riseTime_6_0 (* 0 time_6))) (= localTime_6_t (+ localTime_6_0 (* 0 time_6))) (= level_6_t (+ level_6_0 (* 0 time_6))) (= i_6_t (+ i_6_0 (* 0 time_6))) (= clock_time_6_t (+ clock_time_6_0 (* 0 time_6))) (= [clock_time_6_t i_6_t level_6_t localTime_6_t riseTime_6_t t1_6_t t2_6_t v_6_t] (integral 0. time_6 [clock_time_6_0 i_6_0 level_6_0 localTime_6_0 riseTime_6_0 t1_6_0 t2_6_0 v_6_0] flow_7)) (= mode_6 7) (forall_t 7 [0 time_6] (and (= i_6_t 0.05) (<= v_6_t 3) (<= clock_time_6_t 15000) (<= 0 v_6_t))) (= i_6_0 0.05) (<= v_6_0 3) (<= clock_time_6_0 15000) (<= 0 v_6_0) (= i_6_t 0.05) (<= v_6_t 3) (<= clock_time_6_t 15000) (<= 0 v_6_t) (= mode_7 2) (= v_6_t (* 0.1 4.2)) (= level_6_t 0) (> (/ (- (+ 3 0.005) v_6_t) 1200) 0) (= riseTime_7_0 riseTime_6_t) (= clock_time_7_0 clock_time_6_t) (= t2_7_0 t2_6_t) (= i_7_0 i_6_t) (= v_7_0 v_6_t) (= t1_7_0 clock_time_6_t) (= level_7_0 1) (= localTime_7_0 0) (or (and (= mode_8 3) (<= v_7_t 3) (= level_7_t 1) (>= v_7_t (- 3 0.005)) (= riseTime_8_0 riseTime_7_t) (= localTime_8_0 localTime_7_t) (= clock_time_8_0 clock_time_7_t) (= t2_8_0 t2_7_t) (= t1_8_0 t1_7_t) (= level_8_0 level_7_t) (= v_8_0 v_7_t) (= i_8_0 1)) (and (= mode_8 7) (= v_7_t (* 0.1 4.2)) (= level_7_t 0) (> (/ (- (+ 3 0.005) v_7_t) 1200) 0) (= riseTime_8_0 riseTime_7_t) (= localTime_8_0 localTime_7_t) (= t2_8_0 t2_7_t) (= t1_8_0 t1_7_t) (= level_8_0 level_7_t) (= i_8_0 i_7_t) (= v_8_0 v_7_t) (= clock_time_8_0 0)) (and (= mode_8 3) (<= v_7_t 3) (= level_7_t 0) (>= v_7_t (- 3 0.005)) (= riseTime_8_0 riseTime_7_t) (= localTime_8_0 localTime_7_t) (= clock_time_8_0 clock_time_7_t) (= t2_8_0 t2_7_t) (= t1_8_0 t1_7_t) (= level_8_0 level_7_t) (= v_8_0 v_7_t) (= i_8_0 1))) (= t2_7_t (+ t2_7_0 (* 0 time_7))) (= t1_7_t (+ t1_7_0 (* 0 time_7))) (= riseTime_7_t (+ riseTime_7_0 (* 0 time_7))) (= localTime_7_t (+ localTime_7_0 (* 1 time_7))) (= level_7_t (+ level_7_0 (* 0 time_7))) (= i_7_t (+ i_7_0 (* 0 time_7))) (= clock_time_7_t (+ clock_time_7_0 (* 1 time_7))) (= [clock_time_7_t i_7_t level_7_t localTime_7_t riseTime_7_t t1_7_t t2_7_t v_7_t] (integral 0. time_7 [clock_time_7_0 i_7_0 level_7_0 localTime_7_0 riseTime_7_0 t1_7_0 t2_7_0 v_7_0] flow_2)) (= mode_7 2) (forall_t 2 [0 time_7] (and (= i_7_t 0.05) (<= v_7_t 3) (<= clock_time_7_t 15000) (<= 0 v_7_t))) (= i_7_0 0.05) (<= v_7_0 3) (<= clock_time_7_0 15000) (<= 0 v_7_0) (= i_7_t 0.05) (<= v_7_t 3) (<= clock_time_7_t 15000) (<= 0 v_7_t) (= v_8_t (+ v_8_0 (* 0 time_8))) (= t2_8_t (+ t2_8_0 (* 0 time_8))) (= t1_8_t (+ t1_8_0 (* 0 time_8))) (= riseTime_8_t (+ riseTime_8_0 (* 0 time_8))) (= localTime_8_t (+ localTime_8_0 (* 0 time_8))) (= level_8_t (+ level_8_0 (* 0 time_8))) (= i_8_t (+ i_8_0 (* 0 time_8))) (= clock_time_8_t (+ clock_time_8_0 (* 0 time_8))) (= [clock_time_8_t i_8_t level_8_t localTime_8_t riseTime_8_t t1_8_t t2_8_t v_8_t] (integral 0. time_8 [clock_time_8_0 i_8_0 level_8_0 localTime_8_0 riseTime_8_0 t1_8_0 t2_8_0 v_8_0] flow_7)) (= mode_8 7) (forall_t 7 [0 time_8] (and (= i_8_t 0.05) (<= v_8_t 3) (<= clock_time_8_t 15000) (<= 0 v_8_t))) (= i_8_0 0.05) (<= v_8_0 3) (<= clock_time_8_0 15000) (<= 0 v_8_0) (= i_8_t 0.05) (<= v_8_t 3) (<= clock_time_8_t 15000) (<= 0 v_8_t) (= mode_9 2) (= v_8_t (* 0.1 4.2)) (= level_8_t 0) (> (/ (- (+ 3 0.005) v_8_t) 1200) 0) (= riseTime_9_0 riseTime_8_t) (= clock_time_9_0 clock_time_8_t) (= t2_9_0 t2_8_t) (= i_9_0 i_8_t) (= v_9_0 v_8_t) (= t1_9_0 clock_time_8_t) (= level_9_0 1) (= localTime_9_0 0) (or (and (= mode_10 3) (<= v_9_t 3) (= level_9_t 1) (>= v_9_t (- 3 0.005)) (= riseTime_10_0 riseTime_9_t) (= localTime_10_0 localTime_9_t) (= clock_time_10_0 clock_time_9_t) (= t2_10_0 t2_9_t) (= t1_10_0 t1_9_t) (= level_10_0 level_9_t) (= v_10_0 v_9_t) (= i_10_0 1)) (and (= mode_10 7) (= v_9_t (* 0.1 4.2)) (= level_9_t 0) (> (/ (- (+ 3 0.005) v_9_t) 1200) 0) (= riseTime_10_0 riseTime_9_t) (= localTime_10_0 localTime_9_t) (= t2_10_0 t2_9_t) (= t1_10_0 t1_9_t) (= level_10_0 level_9_t) (= i_10_0 i_9_t) (= v_10_0 v_9_t) (= clock_time_10_0 0)) (and (= mode_10 3) (<= v_9_t 3) (= level_9_t 0) (>= v_9_t (- 3 0.005)) (= riseTime_10_0 riseTime_9_t) (= localTime_10_0 localTime_9_t) (= clock_time_10_0 clock_time_9_t) (= t2_10_0 t2_9_t) (= t1_10_0 t1_9_t) (= level_10_0 level_9_t) (= v_10_0 v_9_t) (= i_10_0 1))) (= t2_9_t (+ t2_9_0 (* 0 time_9))) (= t1_9_t (+ t1_9_0 (* 0 time_9))) (= riseTime_9_t (+ riseTime_9_0 (* 0 time_9))) (= localTime_9_t (+ localTime_9_0 (* 1 time_9))) (= level_9_t (+ level_9_0 (* 0 time_9))) (= i_9_t (+ i_9_0 (* 0 time_9))) (= clock_time_9_t (+ clock_time_9_0 (* 1 time_9))) (= [clock_time_9_t i_9_t level_9_t localTime_9_t riseTime_9_t t1_9_t t2_9_t v_9_t] (integral 0. time_9 [clock_time_9_0 i_9_0 level_9_0 localTime_9_0 riseTime_9_0 t1_9_0 t2_9_0 v_9_0] flow_2)) (= mode_9 2) (forall_t 2 [0 time_9] (and (= i_9_t 0.05) (<= v_9_t 3) (<= clock_time_9_t 15000) (<= 0 v_9_t))) (= i_9_0 0.05) (<= v_9_0 3) (<= clock_time_9_0 15000) (<= 0 v_9_0) (= i_9_t 0.05) (<= v_9_t 3) (<= clock_time_9_t 15000) (<= 0 v_9_t) (= v_10_t (+ v_10_0 (* 0 time_10))) (= t2_10_t (+ t2_10_0 (* 0 time_10))) (= t1_10_t (+ t1_10_0 (* 0 time_10))) (= riseTime_10_t (+ riseTime_10_0 (* 0 time_10))) (= localTime_10_t (+ localTime_10_0 (* 0 time_10))) (= level_10_t (+ level_10_0 (* 0 time_10))) (= i_10_t (+ i_10_0 (* 0 time_10))) (= clock_time_10_t (+ clock_time_10_0 (* 0 time_10))) (= [clock_time_10_t i_10_t level_10_t localTime_10_t riseTime_10_t t1_10_t t2_10_t v_10_t] (integral 0. time_10 [clock_time_10_0 i_10_0 level_10_0 localTime_10_0 riseTime_10_0 t1_10_0 t2_10_0 v_10_0] flow_7)) (= mode_10 7) (forall_t 7 [0 time_10] (and (= i_10_t 0.05) (<= v_10_t 3) (<= clock_time_10_t 15000) (<= 0 v_10_t))) (= i_10_0 0.05) (<= v_10_0 3) (<= clock_time_10_0 15000) (<= 0 v_10_0) (= i_10_t 0.05) (<= v_10_t 3) (<= clock_time_10_t 15000) (<= 0 v_10_t) (= mode_11 2) (= v_10_t (* 0.1 4.2)) (= level_10_t 0) (> (/ (- (+ 3 0.005) v_10_t) 1200) 0) (= riseTime_11_0 riseTime_10_t) (= clock_time_11_0 clock_time_10_t) (= t2_11_0 t2_10_t) (= i_11_0 i_10_t) (= v_11_0 v_10_t) (= t1_11_0 clock_time_10_t) (= level_11_0 1) (= localTime_11_0 0) (or (and (= mode_12 3) (<= v_11_t 3) (= level_11_t 1) (>= v_11_t (- 3 0.005)) (= riseTime_12_0 riseTime_11_t) (= localTime_12_0 localTime_11_t) (= clock_time_12_0 clock_time_11_t) (= t2_12_0 t2_11_t) (= t1_12_0 t1_11_t) (= level_12_0 level_11_t) (= v_12_0 v_11_t) (= i_12_0 1)) (and (= mode_12 7) (= v_11_t (* 0.1 4.2)) (= level_11_t 0) (> (/ (- (+ 3 0.005) v_11_t) 1200) 0) (= riseTime_12_0 riseTime_11_t) (= localTime_12_0 localTime_11_t) (= t2_12_0 t2_11_t) (= t1_12_0 t1_11_t) (= level_12_0 level_11_t) (= i_12_0 i_11_t) (= v_12_0 v_11_t) (= clock_time_12_0 0)) (and (= mode_12 3) (<= v_11_t 3) (= level_11_t 0) (>= v_11_t (- 3 0.005)) (= riseTime_12_0 riseTime_11_t) (= localTime_12_0 localTime_11_t) (= clock_time_12_0 clock_time_11_t) (= t2_12_0 t2_11_t) (= t1_12_0 t1_11_t) (= level_12_0 level_11_t) (= v_12_0 v_11_t) (= i_12_0 1))) (= t2_11_t (+ t2_11_0 (* 0 time_11))) (= t1_11_t (+ t1_11_0 (* 0 time_11))) (= riseTime_11_t (+ riseTime_11_0 (* 0 time_11))) (= localTime_11_t (+ localTime_11_0 (* 1 time_11))) (= level_11_t (+ level_11_0 (* 0 time_11))) (= i_11_t (+ i_11_0 (* 0 time_11))) (= clock_time_11_t (+ clock_time_11_0 (* 1 time_11))) (= [clock_time_11_t i_11_t level_11_t localTime_11_t riseTime_11_t t1_11_t t2_11_t v_11_t] (integral 0. time_11 [clock_time_11_0 i_11_0 level_11_0 localTime_11_0 riseTime_11_0 t1_11_0 t2_11_0 v_11_0] flow_2)) (= mode_11 2) (forall_t 2 [0 time_11] (and (= i_11_t 0.05) (<= v_11_t 3) (<= clock_time_11_t 15000) (<= 0 v_11_t))) (= i_11_0 0.05) (<= v_11_0 3) (<= clock_time_11_0 15000) (<= 0 v_11_0) (= i_11_t 0.05) (<= v_11_t 3) (<= clock_time_11_t 15000) (<= 0 v_11_t) (or (and (= mode_13 4) (<= v_12_t (+ 4.2 0.005)) (= level_12_t 1) (<= (- 4.2 0.005) v_12_t) (= riseTime_13_0 riseTime_12_t) (= localTime_13_0 localTime_12_t) (= clock_time_13_0 clock_time_12_t) (= t2_13_0 t2_12_t) (= t1_13_0 t1_12_t) (= level_13_0 level_12_t) (= i_13_0 i_12_t) (= v_13_0 v_12_t)) (and (= mode_13 8) (<= 0 localTime_12_t) (= v_12_t (* 0.9 4.2)) (= level_12_t 1) (> (/ (- (+ 4.2 0.005) v_12_t) 150) 0) (= riseTime_13_0 riseTime_12_t) (= localTime_13_0 localTime_12_t) (= clock_time_13_0 clock_time_12_t) (= t1_13_0 t1_12_t) (= level_13_0 level_12_t) (= i_13_0 i_12_t) (= v_13_0 v_12_t) (= t2_13_0 clock_time_12_t)) (and (= mode_13 4) (<= v_12_t (+ 4.2 0.005)) (= level_12_t 0) (<= (- 4.2 0.005) v_12_t) (= riseTime_13_0 riseTime_12_t) (= localTime_13_0 localTime_12_t) (= clock_time_13_0 clock_time_12_t) (= t2_13_0 t2_12_t) (= t1_13_0 t1_12_t) (= level_13_0 level_12_t) (= i_13_0 i_12_t) (= v_13_0 v_12_t))) (= t2_12_t (+ t2_12_0 (* 0 time_12))) (= t1_12_t (+ t1_12_0 (* 0 time_12))) (= riseTime_12_t (+ riseTime_12_0 (* 0 time_12))) (= localTime_12_t (+ localTime_12_0 (* 1 time_12))) (= level_12_t (+ level_12_0 (* 0 time_12))) (= i_12_t (+ i_12_0 (* 0 time_12))) (= clock_time_12_t (+ clock_time_12_0 (* 1 time_12))) (= [clock_time_12_t i_12_t level_12_t localTime_12_t riseTime_12_t t1_12_t t2_12_t v_12_t] (integral 0. time_12 [clock_time_12_0 i_12_0 level_12_0 localTime_12_0 riseTime_12_0 t1_12_0 t2_12_0 v_12_0] flow_3)) (= mode_12 3) (forall_t 3 [0 time_12] (and (<= i_12_t 1) (<= 0 i_12_t) (<= v_12_t 4.2) (<= clock_time_12_t 15000) (<= (- 3 0.005) v_12_t))) (<= i_12_0 1) (<= 0 i_12_0) (<= v_12_0 4.2) (<= clock_time_12_0 15000) (<= (- 3 0.005) v_12_0) (<= i_12_t 1) (<= 0 i_12_t) (<= v_12_t 4.2) (<= clock_time_12_t 15000) (<= (- 3 0.005) v_12_t) (= v_13_t (+ v_13_0 (* 0 time_13))) (= t2_13_t (+ t2_13_0 (* 0 time_13))) (= t1_13_t (+ t1_13_0 (* 0 time_13))) (= riseTime_13_t (+ riseTime_13_0 (* 0 time_13))) (= localTime_13_t (+ localTime_13_0 (* 0 time_13))) (= level_13_t (+ level_13_0 (* 0 time_13))) (= i_13_t (+ i_13_0 (* 0 time_13))) (= clock_time_13_t (+ clock_time_13_0 (* 0 time_13))) (= [clock_time_13_t i_13_t level_13_t localTime_13_t riseTime_13_t t1_13_t t2_13_t v_13_t] (integral 0. time_13 [clock_time_13_0 i_13_0 level_13_0 localTime_13_0 riseTime_13_0 t1_13_0 t2_13_0 v_13_0] flow_8)) (= mode_13 8) (forall_t 8 [0 time_13] (and (<= i_13_t 1) (<= 0 i_13_t) (<= v_13_t 4.2) (<= clock_time_13_t 15000) (<= (- 3 0.005) v_13_t))) (<= i_13_0 1) (<= 0 i_13_0) (<= v_13_0 4.2) (<= clock_time_13_0 15000) (<= (- 3 0.005) v_13_0) (<= i_13_t 1) (<= 0 i_13_t) (<= v_13_t 4.2) (<= clock_time_13_t 15000) (<= (- 3 0.005) v_13_t) (= mode_14 6) (<= 0 localTime_13_t) (= v_13_t (* 0.9 4.2)) (= level_13_t 1) (> (/ (- (+ 4.2 0.005) v_13_t) 150) 0) (= t2_14_0 t2_13_t) (= t1_14_0 t1_13_t) (= i_14_0 i_13_t) (= v_14_0 v_13_t) (= riseTime_14_0 (- t2_13_t t1_13_t)) (= clock_time_14_0 0) (= level_14_0 0) (= localTime_14_0 0) (= v_14_t (+ v_14_0 (* 0 time_14))) (= t2_14_t (+ t2_14_0 (* 0 time_14))) (= t1_14_t (+ t1_14_0 (* 0 time_14))) (= riseTime_14_t (+ riseTime_14_0 (* 0 time_14))) (= localTime_14_t (+ localTime_14_0 (* 0 time_14))) (= level_14_t (+ level_14_0 (* 0 time_14))) (= i_14_t (+ i_14_0 (* 0 time_14))) (= clock_time_14_t (+ clock_time_14_0 (* 1 time_14))) (= [clock_time_14_t i_14_t level_14_t localTime_14_t riseTime_14_t t1_14_t t2_14_t v_14_t] (integral 0. time_14 [clock_time_14_0 i_14_0 level_14_0 localTime_14_0 riseTime_14_0 t1_14_0 t2_14_0 v_14_0] flow_6)) (= mode_14 6) (forall_t 6 [0 time_14] (<= clock_time_14_t 1)) (<= clock_time_14_t 1) (<= clock_time_14_0 1) (= mode_14 6) (<= riseTime_14_t 9595) (>= riseTime_14_t 4189)))
(check-sat)
(exit)
